nProjectSelect = 3;


Students = {
<18, s1, {p1 p6 p4}>,
<59.3, s2, {p2 p4 p1}>,
<87.2, s3, {p1 p4}>,
<75, s4, {p6 p5 p3}>
};


Projects = {
<p1, 1>,
<p2, 1>,
<p3, 1>,
<p4, 1>,
<p5, 2>,
<p6, 1>
};


Lecturers = {
<l1, {p1 p6}, 2>,
<l2, {p2 p5}, 1>,
<l3, {p3 p4}, 2>,
};
